output ([(((("\n"++problem_name)++"\n")++"L:")++show(L))++"\n"]++[if problem[i,j]==0 then "*" else show(letters[fix(L[problem[i,j]])]) endif++if j==cols then "\n" else "" endif | i in 1..rows, j in 1..cols, ])++["\n"];
int: rows = 23;
int: cols = 23;
array [1..rows,1..cols] of int: problem = [|1,2,3,4,0,5,6,7,8,9,0,10,11,12,13,14,0,15,16,17,18,19,0|20,21,22,23,0,24,25,26,27,28,0,29,30,31,32,33,0,34,35,36,37,38,39|40,41,42,43,44,45,46,47,48,49,0,50,51,52,53,54,55,56,57,58,59,60,61|62,63,64,65,66,67,68,69,0,70,71,72,73,74,0,75,76,77,78,0,79,80,81|0,0,0,82,83,84,85,0,86,87,88,89,90,0,91,92,93,94,0,95,96,97,98|99,100,101,102,103,104,0,105,106,107,108,109,0,110,111,112,113,0,114,115,116,117,118|119,120,121,122,123,0,124,125,126,127,0,0,128,129,130,131,0,132,133,134,0,0,0|135,136,137,138,0,139,140,141,142,143,144,145,146,147,148,0,149,150,151,152,153,154,155|156,157,158,0,159,160,161,162,163,0,164,165,166,167,0,168,169,170,171,0,172,173,174|175,176,177,178,179,180,181,182,0,183,184,185,186,187,188,189,190,191,0,192,193,194,195|0,0,196,197,198,199,0,200,201,202,203,204,0,205,206,207,208,0,209,210,211,212,213|214,215,216,217,218,219,0,220,221,222,223,0,224,225,226,227,0,228,229,230,231,232,233|234,235,236,237,238,0,239,240,241,242,0,243,244,245,246,247,0,248,249,250,251,0,0|252,253,254,255,0,256,257,258,259,260,261,262,263,264,0,265,266,267,268,269,270,271,272|273,274,275,0,276,277,278,279,0,280,281,282,283,0,284,285,286,287,288,0,289,290,291|292,293,294,295,296,297,298,0,299,300,301,302,303,304,305,306,307,308,0,309,310,311,312|0,0,0,313,314,315,0,316,317,318,319,0,0,320,321,322,323,0,324,325,326,327,328|329,330,331,332,333,0,334,335,336,337,0,338,339,340,341,342,0,343,344,345,346,347,348|349,350,351,352,0,353,354,355,356,0,357,358,359,360,361,0,362,363,364,365,0,0,0|366,367,368,0,369,370,371,372,0,373,374,375,376,377,0,378,379,380,381,382,383,384,385|386,387,388,389,390,391,392,393,394,395,396,397,0,398,399,400,401,402,403,404,405,406,407|408,409,410,411,412,413,0,414,415,416,417,418,0,419,420,421,422,423,0,424,425,426,427|0,428,429,430,431,432,0,433,434,435,436,437,0,438,439,440,441,442,0,443,444,445,446|];
int: num_letters = 26;
array [1..num_letters] of string: letters = ["a","b","c","d","e","f","g","h","i","j","k","l","m","n","o","p","q","r","s","t","u","v","w","x","y","z"];
int: N = 446;
array [0..N] of int: L;
string: problem_name = "23.07, 23 x 23";
